\ENCODING=ISO-8859-1
\Problem name: IloCplex

Minimize
 obj1: X_1_1 + X_2_1 + 2 X_3_1 + X_1_2 + X_2_2 + 2 X_3_2 + X_1_3 + X_2_3
       + 2 X_3_3 + X_1_4 + X_2_4 + 2 X_3_4 + X_1_5 + X_2_5 + 2 X_3_5 + X_1_6
       + X_2_6 + 2 X_3_6 + X_1_7 + X_2_7 + 2 X_3_7 + X_1_8 + X_2_8 + 2 X_3_8
       + X_1_9 + X_2_9 + 2 X_3_9 + X_1_10 + X_2_10 + 2 X_3_10 + Y_1_1 + 3 Y_2_1
       + 8 Y_3_1 + Y_1_2 + 3 Y_2_2 + 8 Y_3_2 + Y_1_3 + 3 Y_2_3 + 8 Y_3_3
       + Y_1_4 + 3 Y_2_4 + 8 Y_3_4 + Y_1_5 + 3 Y_2_5 + 8 Y_3_5 + Y_1_6
       + 3 Y_2_6 + 8 Y_3_6 + Y_1_7 + 3 Y_2_7 + 8 Y_3_7 + Y_1_8 + 3 Y_2_8
       + 8 Y_3_8 + Y_1_9 + 3 Y_2_9 + 8 Y_3_9 + Y_1_10 + 3 Y_2_10 + 8 Y_3_10
       + 5 I_1_1 + 5 I_2_1 + 2 I_3_1 + 5 I_1_2 + 5 I_2_2 + 2 I_3_2 + 5 I_1_3
       + 5 I_2_3 + 2 I_3_3 + 5 I_1_4 + 5 I_2_4 + 2 I_3_4 + 5 I_1_5 + 5 I_2_5
       + 2 I_3_5 + 5 I_1_6 + 5 I_2_6 + 2 I_3_6 + 5 I_1_7 + 5 I_2_7 + 2 I_3_7
       + 5 I_1_8 + 5 I_2_8 + 2 I_3_8 + 5 I_1_9 + 5 I_2_9 + 2 I_3_9 + 5 I_1_10
       + 5 I_2_10 + 2 I_3_10
Subject To
 c1:  X_1_1 - I_1_1  = 90
 c2:  X_1_2 + I_1_1 - I_1_2  = 52
 c3:  X_1_3 + I_1_2 - I_1_3  = 61
 c4:  X_1_4 + I_1_3 - I_1_4  = 80
 c5:  X_1_5 + I_1_4 - I_1_5  = 74
 c6:  X_1_6 + I_1_5 - I_1_6  = 51
 c7:  X_1_7 + I_1_6 - I_1_7  = 58
 c8:  X_1_8 + I_1_7 - I_1_8  = 57
 c9:  X_1_9 + I_1_8 - I_1_9  = 80
 c10: X_1_10 + I_1_9 - I_1_10  = 55
 c11: X_2_1 - I_2_1  = 50
 c12: X_2_2 + I_2_1 - I_2_2  = 87
 c13: X_2_3 + I_2_2 - I_2_3  = 70
 c14: X_2_4 + I_2_3 - I_2_4  = 88
 c15: X_2_5 + I_2_4 - I_2_5  = 60
 c16: X_2_6 + I_2_5 - I_2_6  = 85
 c17: X_2_7 + I_2_6 - I_2_7  = 87
 c18: X_2_8 + I_2_7 - I_2_8  = 61
 c19: X_2_9 + I_2_8 - I_2_9  = 67
 c20: X_2_10 + I_2_9 - I_2_10  = 74
 c21: X_3_1 - I_3_1  = 77
 c22: X_3_2 + I_3_1 - I_3_2  = 51
 c23: X_3_3 + I_3_2 - I_3_3  = 68
 c24: X_3_4 + I_3_3 - I_3_4  = 70
 c25: X_3_5 + I_3_4 - I_3_5  = 63
 c26: X_3_6 + I_3_5 - I_3_6  = 53
 c27: X_3_7 + I_3_6 - I_3_7  = 81
 c28: X_3_8 + I_3_7 - I_3_8  = 89
 c29: X_3_9 + I_3_8 - I_3_9  = 84
 c30: X_3_10 + I_3_9 - I_3_10  = 52
 c31: X_1_1 - 800 Y_1_1 <= 0
 c32: X_2_1 - 800 Y_2_1 <= 0
 c33: X_3_1 - 800 Y_3_1 <= 0
 c34: X_1_2 - 800 Y_1_2 <= 0
 c35: X_2_2 - 800 Y_2_2 <= 0
 c36: X_3_2 - 800 Y_3_2 <= 0
 c37: X_1_3 - 800 Y_1_3 <= 0
 c38: X_2_3 - 800 Y_2_3 <= 0
 c39: X_3_3 - 800 Y_3_3 <= 0
 c40: X_1_4 - 800 Y_1_4 <= 0
 c41: X_2_4 - 800 Y_2_4 <= 0
 c42: X_3_4 - 800 Y_3_4 <= 0
 c43: X_1_5 - 800 Y_1_5 <= 0
 c44: X_2_5 - 800 Y_2_5 <= 0
 c45: X_3_5 - 800 Y_3_5 <= 0
 c46: X_1_6 - 800 Y_1_6 <= 0
 c47: X_2_6 - 800 Y_2_6 <= 0
 c48: X_3_6 - 800 Y_3_6 <= 0
 c49: X_1_7 - 800 Y_1_7 <= 0
 c50: X_2_7 - 800 Y_2_7 <= 0
 c51: X_3_7 - 800 Y_3_7 <= 0
 c52: X_1_8 - 800 Y_1_8 <= 0
 c53: X_2_8 - 800 Y_2_8 <= 0
 c54: X_3_8 - 800 Y_3_8 <= 0
 c55: X_1_9 - 800 Y_1_9 <= 0
 c56: X_2_9 - 800 Y_2_9 <= 0
 c57: X_3_9 - 800 Y_3_9 <= 0
 c58: X_1_10 - 800 Y_1_10 <= 0
 c59: X_2_10 - 800 Y_2_10 <= 0
 c60: X_3_10 - 800 Y_3_10 <= 0
 c61: 3 X_1_1 + 2 X_2_1 + 3 X_3_1 + 18 Y_1_1 + 22 Y_2_1 + 15 Y_3_1 <= 800
 c62: 3 X_1_2 + 2 X_2_2 + 3 X_3_2 + 18 Y_1_2 + 22 Y_2_2 + 15 Y_3_2 <= 800
 c63: 3 X_1_3 + 2 X_2_3 + 3 X_3_3 + 18 Y_1_3 + 22 Y_2_3 + 15 Y_3_3 <= 800
 c64: 3 X_1_4 + 2 X_2_4 + 3 X_3_4 + 18 Y_1_4 + 22 Y_2_4 + 15 Y_3_4 <= 800
 c65: 3 X_1_5 + 2 X_2_5 + 3 X_3_5 + 18 Y_1_5 + 22 Y_2_5 + 15 Y_3_5 <= 800
 c66: 3 X_1_6 + 2 X_2_6 + 3 X_3_6 + 18 Y_1_6 + 22 Y_2_6 + 15 Y_3_6 <= 800
 c67: 3 X_1_7 + 2 X_2_7 + 3 X_3_7 + 18 Y_1_7 + 22 Y_2_7 + 15 Y_3_7 <= 800
 c68: 3 X_1_8 + 2 X_2_8 + 3 X_3_8 + 18 Y_1_8 + 22 Y_2_8 + 15 Y_3_8 <= 800
 c69: 3 X_1_9 + 2 X_2_9 + 3 X_3_9 + 18 Y_1_9 + 22 Y_2_9 + 15 Y_3_9 <= 800
 c70: 3 X_1_10 + 2 X_2_10 + 3 X_3_10 + 18 Y_1_10 + 22 Y_2_10 + 15 Y_3_10 <= 800
Bounds
      X_1_1 >= 0
      X_2_1 >= 0
      X_3_1 >= 0
      X_1_2 >= 0
      X_2_2 >= 0
      X_3_2 >= 0
      X_1_3 >= 0
      X_2_3 >= 0
      X_3_3 >= 0
      X_1_4 >= 0
      X_2_4 >= 0
      X_3_4 >= 0
      X_1_5 >= 0
      X_2_5 >= 0
      X_3_5 >= 0
      X_1_6 >= 0
      X_2_6 >= 0
      X_3_6 >= 0
      X_1_7 >= 0
      X_2_7 >= 0
      X_3_7 >= 0
      X_1_8 >= 0
      X_2_8 >= 0
      X_3_8 >= 0
      X_1_9 >= 0
      X_2_9 >= 0
      X_3_9 >= 0
      X_1_10 >= 0
      X_2_10 >= 0
      X_3_10 >= 0
 0 <= Y_1_1 <= 1
 0 <= Y_2_1 <= 1
 0 <= Y_3_1 <= 1
 0 <= Y_1_2 <= 1
 0 <= Y_2_2 <= 1
 0 <= Y_3_2 <= 1
 0 <= Y_1_3 <= 1
 0 <= Y_2_3 <= 1
 0 <= Y_3_3 <= 1
 0 <= Y_1_4 <= 1
 0 <= Y_2_4 <= 1
 0 <= Y_3_4 <= 1
 0 <= Y_1_5 <= 1
 0 <= Y_2_5 <= 1
 0 <= Y_3_5 <= 1
 0 <= Y_1_6 <= 1
 0 <= Y_2_6 <= 1
 0 <= Y_3_6 <= 1
 0 <= Y_1_7 <= 1
 0 <= Y_2_7 <= 1
 0 <= Y_3_7 <= 1
 0 <= Y_1_8 <= 1
 0 <= Y_2_8 <= 1
 0 <= Y_3_8 <= 1
 0 <= Y_1_9 <= 1
 0 <= Y_2_9 <= 1
 0 <= Y_3_9 <= 1
 0 <= Y_1_10 <= 1
 0 <= Y_2_10 <= 1
 0 <= Y_3_10 <= 1
      I_1_1 >= 0
      I_2_1 >= 0
      I_3_1 >= 0
      I_1_2 >= 0
      I_2_2 >= 0
      I_3_2 >= 0
      I_1_3 >= 0
      I_2_3 >= 0
      I_3_3 >= 0
      I_1_4 >= 0
      I_2_4 >= 0
      I_3_4 >= 0
      I_1_5 >= 0
      I_2_5 >= 0
      I_3_5 >= 0
      I_1_6 >= 0
      I_2_6 >= 0
      I_3_6 >= 0
      I_1_7 >= 0
      I_2_7 >= 0
      I_3_7 >= 0
      I_1_8 >= 0
      I_2_8 >= 0
      I_3_8 >= 0
      I_1_9 >= 0
      I_2_9 >= 0
      I_3_9 >= 0
      I_1_10 >= 0
      I_2_10 >= 0
      I_3_10 >= 0
Binaries
 Y_1_1  Y_2_1  Y_3_1  Y_1_2  Y_2_2  Y_3_2  Y_1_3  Y_2_3  Y_3_3  Y_1_4  Y_2_4 
 Y_3_4  Y_1_5  Y_2_5  Y_3_5  Y_1_6  Y_2_6  Y_3_6  Y_1_7  Y_2_7  Y_3_7  Y_1_8 
 Y_2_8  Y_3_8  Y_1_9  Y_2_9  Y_3_9  Y_1_10  Y_2_10  Y_3_10 
Generals
 X_1_1  X_2_1  X_3_1  X_1_2  X_2_2  X_3_2  X_1_3  X_2_3  X_3_3  X_1_4  X_2_4 
 X_3_4  X_1_5  X_2_5  X_3_5  X_1_6  X_2_6  X_3_6  X_1_7  X_2_7  X_3_7  X_1_8 
 X_2_8  X_3_8  X_1_9  X_2_9  X_3_9  X_1_10  X_2_10  X_3_10  I_1_1  I_2_1 
 I_3_1  I_1_2  I_2_2  I_3_2  I_1_3  I_2_3  I_3_3  I_1_4  I_2_4  I_3_4  I_1_5 
 I_2_5  I_3_5  I_1_6  I_2_6  I_3_6  I_1_7  I_2_7  I_3_7  I_1_8  I_2_8  I_3_8 
 I_1_9  I_2_9  I_3_9  I_1_10  I_2_10  I_3_10 
End
